
ACE v2.1 

  instance
    name:PyCSP

  Loading variables...

  Loading constraints...

  domains
    types:1  values:364  sizes:[2:182]
  variables
    count:182  arrays:1  degrees:[159:4,160:46,161:132]
  constraints
    count:7136  specific:38  groups:2  arities:[4:7098,14:13,26:13,28:12]
    distribution:[Cardinality:13,ConstraintIntension:7098,LexicographicLE:25]
    intStructures:(1,shared:7097)
    wck:2.40  cpu:2.859  mem:32M568

  Building solver... 

  solver
    guaranteedAC:true
    wck:2.48  cpu:2.89  mem:42M532

  preprocessing
    revisions:(28392,useless=28392)  values:364  unsat:false
    wck:0.033  cpu:2.921  mem:42M532

    run0  dpts:0..7  effs:66  fails:1  wrgs:9  wck:0.00

  global
    effs:66  revisions:(54310,useless=54296)
    stop:FULL_EXPLORATION  wrgs:9
    wck:2.55  cpu:2.953  mem:43M54

s UNSATISFIABLE

d WRONG DECISIONS 9
d FOUND SOLUTIONS 0
d COMPLETE EXPLORATION

c real time : 2.953
